p cnf 17 32
a 3 0
e 1 2 4 5 6 7 8 9 10 11 12 13 14 15 16 17 0
-3 -1 0
-3 -2 0
1 2 3 0
6 4 0
6 -5 0
-4 5 -6 0
-9 7 0
-9 -8 0
-7 8 9 0
-10 6 0
-10 9 0
-6 -9 10 0
11 -3 0
11 -10 0
3 10 -11 0
-5 -12 -13 0
5 12 -13 0
-5 12 13 0
5 -12 13 0
-14 -11 0
-14 -13 0
11 13 14 0
16 -15 0
16 1 0
15 -1 -16 0
17 14 0
17 -16 0
-14 16 -17 0
-13 -5 1 -8 7 0
-17 9 -1 5 -4 -16 0
-2 11 -6 4 -10 15 0
17 0
